100
30
10
8
18
12
17
31
31
31
1
7
10
6
1
6
13
11
20
7
11
11
10
11
31
11
5
3
3
4
18
5
16
31
17
31
15
31
12
18
2
4
2
2
6
31
17
31
18
6
4
4
32
1
12
1
31
10
3
4
21
1
11
4
2
32
3
10
28
3
1
4
32
2
2
31
2
2
2
21
1
20
7
31
32
32
5
5
8
9
20
3
4
6
12
14
6
32
21
4
9
4